1 of 1 MIP starts provided solutions.
MIP start 'm1' defined initial solution with objective 102149.0000.
Tried aggregator 1 time.
MIP Presolve eliminated 0 rows and 1 columns.
Reduced MIP has 60200 rows, 30400 columns, and 9210100 nonzeros.
Reduced MIP has 30000 binaries, 0 generals, 0 SOSs, and 0 indicators.
Presolve time = 4.90 sec. (2335.92 ticks)
Probing time = 0.23 sec. (93.88 ticks)
Tried aggregator 1 time.
Reduced MIP has 60200 rows, 30400 columns, and 9210100 nonzeros.
Reduced MIP has 30000 binaries, 0 generals, 0 SOSs, and 0 indicators.
Presolve time = 4.92 sec. (2336.04 ticks)
Probing time = 0.24 sec. (95.23 ticks)
Clique table members: 100.
MIP emphasis: balance optimality and feasibility.
MIP search method: dynamic search.
Parallel mode: none, using 1 thread.
Root relaxation solution time = 2.26 sec. (1006.83 ticks)

        Nodes                                         Cuts/
   Node  Left     Objective  IInf  Best Integer    Best Bound    ItCnt     Gap

*     0+    0                       102149.0000   102184.0000      855    0.03%
      0     0   102183.9205    48   102149.0000   102183.9205      855    0.03%
      0     0   102157.4971    20   102149.0000      Cuts: 52      902    0.01%

Implied bound cuts applied:  1
Flow cuts applied:  20
Mixed integer rounding cuts applied:  11
Gomory fractional cuts applied:  8

Root node processing (before b&c):
  Real time             =   28.08 sec. (13005.66 ticks)
Sequential b&c:
  Real time             =    0.00 sec. (0.00 ticks)
                          ------------
Total (root+branch&cut) =   28.08 sec. (13005.66 ticks)
